Te90O180 random snaphot                 
   1.00000000000000     
    16.2389244662000003    0.0000000000000000    0.0000000000000000
     0.0000000000000000   16.2389244662000003    0.0000000000000000
     0.0000000000000000    0.0000000000000000   16.2389244662000003
   Te   O 
    90   180
Direct
  0.0791810773229642  0.9497049818970495  0.6501948464614529
  0.6910477983537291  0.6413365627555692  0.3557002196803509
  0.9693677988936145  0.7447125593305941  0.3556739864158942
  0.0933073494586267  0.3438845972603204  0.0554676513136556
  0.1818470802143608  0.9169258118659300  0.1999605335167800
  0.6917854703605713  0.9666525657332059  0.6243741709066910
  0.5065357017406455  0.0269999737182474  0.8186722604487215
  0.4928665082874701  0.5574861203919639  0.3617854749080394
  0.1289845275381154  0.4634343250788575  0.4848840214996457
  0.3733340845706081  0.9515387569024085  0.1166975069035132
  0.8720601557988417  0.2168928125339207  0.0233434178962426
  0.8906116923015830  0.7999085177738792  0.9282049742625063
  0.4232699040079027  0.2263628362611740  0.8677897990923782
  0.8844942920878722  0.5837960524868677  0.8466240500481348
  0.6426030875209747  0.8561557157888160  0.4388094183719957
  0.9845128002951498  0.2502033314125498  0.2057205824778237
  0.8449745565699374  0.9865391947320816  0.0228890158811694
  0.5810927330588243  0.3457602140884788  0.4945883587744433
  0.2917159329030667  0.6060365032477364  0.4467390075678850
  0.8443772879503157  0.8689399984198545  0.4896265153858792
  0.0438403747293634  0.0746058646015442  0.3424289589851881
  0.9834401307328093  0.4022510858767845  0.8840696950023741
  0.0584147060954905  0.2034161810947168  0.5111678434909592
  0.7045886581845409  0.9387677756448909  0.8412401959522597
  0.1673445187614604  0.8418837114770525  0.4025940888885629
  0.4420404821108050  0.8019996045370874  0.2677938436779712
  0.7160559816755523  0.3695889473771530  0.7181236062937870
  0.9228435683158764  0.4732862090711194  0.6312749358085341
  0.3170338658028555  0.8821674754271598  0.9201028695650066
  0.6228082420760614  0.0927724002372017  0.4462028883182327
  0.6500462528766349  0.5307717895935866  0.5766665778568836
  0.2273867341205786  0.3463795900835436  0.8590893460362636
  0.3116892384427956  0.3565110492415968  0.0666602644930805
  0.9126951129583176  0.0482248686869653  0.5574258947284960
  0.9171131682519018  0.0984557199787375  0.8458469665641744
  0.5521964227781382  0.3224980207833639  0.2446275926874577
  0.5838908863536787  0.6365770110893934  0.7756552489801365
  0.1527167642882858  0.1322592518039230  0.7781786919634044
  0.2561797124347009  0.1225333613775703  0.2024017050415594
  0.3395148497350036  0.9818083724193158  0.6789921354058848
  0.2431237369332919  0.0576765414451827  0.4615423278555255
  0.6215380840651079  0.1641357471393974  0.6720882299019593
  0.2144258388077134  0.6816701452759659  0.2619153755442838
  0.9891811184684229  0.6824174854107952  0.5904372558636339
  0.3583435597666593  0.6185465066302172  0.6883713895749040
  0.7511028224429097  0.4456818562746605  0.9230925051348393
  0.8374304608845975  0.2884585743193711  0.5485410082755564
  0.4760747558184235  0.8196854433127854  0.7241942669588610
  0.5323799626012473  0.0460718648797993  0.2734458805595423
  0.1194717382815682  0.7699917581380262  0.0447432957467271
  0.7035072442007220  0.6698152961201203  0.9860098493300526
  0.3383221599087634  0.4371123847995193  0.2439117817343259
  0.4747069928211758  0.6199164249426232  0.1111106837004812
  0.6971603952936647  0.1816900501102197  0.8829788592123009
  0.7718241455022223  0.6906448775806453  0.5967585488909961
  0.4049127769321217  0.9087220050019198  0.4611074468377154
  0.9566357980501934  0.8764395714521385  0.1859615152644807
  0.8682649537133642  0.8336422789684832  0.7314754757757456
  0.4817252531891683  0.1775830662924918  0.0944382741105798
  0.2280528496642873  0.2685587958166380  0.6451477141731914
  0.1530471433113050  0.3256973090187429  0.3420721003759866
  0.8428579139270340  0.1843288948249224  0.3684487856602559
  0.8744334656864652  0.5602458474966312  0.4184113925859023
  0.0915788195760996  0.7200418983620125  0.7710184271169211
  0.6030125960855273  0.0068281944429742  0.0635492538898106
  0.8544618228184291  0.4149142397961185  0.1481659087095366
  0.3813352918100676  0.2309600003255383  0.3592636330160346
  0.1732912180149171  0.5124945323393959  0.7460012530518796
  0.8753678255962996  0.6602040068795745  0.1540087217725201
  0.2555311473144002  0.1111765747637889  0.9640221575378334
  0.0124437428365809  0.5737928653707485  0.0047019123808951
  0.7579849900539841  0.9828867976707159  0.2347712749040269
  0.6477905616160342  0.4988260162709892  0.1334447367195040
  0.2483313478299394  0.7896619647865606  0.6029294009205515
  0.2203049843261695  0.5614750545196401  0.0912731014350783
  0.4993142875242000  0.7093107689474607  0.5303076578701038
  0.7145664741622753  0.1910432557560853  0.1510924572071843
  0.0529830040031811  0.0494840653808453  0.1007013736287590
  0.6573351592476442  0.7751003476984195  0.1761705343204554
  0.7416804003903579  0.3781037970082295  0.3285768716460211
  0.4668509922427191  0.3856975881029925  0.7135890079493450
  0.5523527754975106  0.8293903348114853  0.9767077883152098
  0.0720119120224965  0.9445902055845607  0.8931662334035124
  0.2757218933630341  0.6866087728412893  0.8999474091044775
  0.4384425221522150  0.1770082129504900  0.5833295807069305
  0.4286291875110138  0.5301383116793659  0.9029360922590186
  0.0383803743466657  0.5350462106086269  0.2473754347685571
  0.9801239299639661  0.2861871184679217  0.7143170734086439
  0.3598383631971771  0.3946662855252328  0.5178554785141998
  0.5587935345648773  0.3519590852150500  0.9600730043698675
  0.3069739015275132  0.3088208218738941  0.4066559958293396
  0.7441708362615387  0.5811516655332056  0.5148356972409971
  0.9174565120374822  0.7600475650767180  0.8090545668431446
  0.4999348335474920  0.2443425368631296  0.6635164183703708
  0.9370822576133904  0.7931645366544444  0.6256192656814150
  0.3389584705228970  0.3448498089670835  0.9017358896199497
  0.8232064277301347  0.6371002600285465  0.3458948289150072
  0.5500865539828652  0.9088168388687308  0.7547094036621189
  0.6965626956110214  0.2836596727565137  0.2369833672180732
  0.1142905125190410  0.6171014601895592  0.2942546191249207
  0.1537005445770205  0.0276356972368532  0.6936059727011994
  0.3668372873092096  0.1230462648039889  0.9231414328702741
  0.2129184113884293  0.0591119813382974  0.8502567413709343
  0.3984534821544230  0.8732630063965345  0.0122736905522771
  0.9211786797294295  0.2276320089851964  0.6143905047878278
  0.0052366768610170  0.8440534364531942  0.2906199243566263
  0.5282901597243210  0.7921519080142758  0.6243153000127464
  0.5207980995048658  0.1491535685655379  0.8498255551791090
  0.2830853120579704  0.0050021498633797  0.9955160536431151
  0.5637582106533614  0.6894417190807900  0.0665703570609040
  0.1188131642594854  0.5169141600154461  0.1291251772470758
  0.4525812664069733  0.0631265329260984  0.7159421810353805
  0.2606804415410053  0.3468391032745544  0.7413330251678332
  0.7886873312735503  0.3856220289117047  0.8201801189310345
  0.0289638024352499  0.3015533454935735  0.9695695979725443
  0.1069333134478399  0.0089758736241023  0.0011028439745076
  0.5185512758266100  0.1516266674634110  0.2186809851472233
  0.2461828681031761  0.8834386187250374  0.6718654318953838
  0.7598346199394186  0.9588478000749987  0.7365729808581918
  0.4146326940564649  0.7078019867586463  0.1588317628651126
  0.9356521752179461  0.9554662953383897  0.4854339347662844
  0.5663474215390636  0.4269323386798405  0.6708221361995825
  0.2160074090683182  0.4165174863691448  0.5501881001168769
  0.6427506342384319  0.4505542232940840  0.4778226548285502
  0.9324251757877207  0.1070839104781527  0.9679694304211708
  0.7761898287189624  0.1172599825784886  0.2203011047588888
  0.0286840753997950  0.0540293787206281  0.8424468029563599
  0.5679021427308868  0.7497084566986061  0.7995075675746506
  0.9569178364333055  0.9723744019541627  0.0719990417120044
  0.7572298292041637  0.0136319085824184  0.9178382491416173
  0.5789074898135667  0.4386251697164738  0.2275045990693343
  0.6271791596296055  0.0198245600852474  0.1866836690022140
  0.6822552825502868  0.2792899868116265  0.9418672419983949
  0.1967595539009039  0.3066536216955100  0.0159992738768366
  0.4811822985114560  0.4189373510641090  0.4915555224494454
  0.4197906711241188  0.8993141775119895  0.6460948828130810
  0.4024394604213128  0.4372696612253932  0.1398649895026907
  0.3646828342804511  0.8053769833846900  0.4988592697048020
  0.8192019137529130  0.2030057475088114  0.8830116200026552
  0.3442812368292465  0.2664884616593497  0.5960870142691874
  0.9111421775990536  0.2350145176143599  0.4597851917804476
  0.2660214356555173  0.4538611541263435  0.0279831956202443
  0.4088005959888221  0.6148434288725042  0.0138411876025302
  0.7615913249514605  0.9764081050566276  0.1135741473420140
  0.8081341241111701  0.9561126106914628  0.5892526946545473
  0.8848528420775637  0.8192452663777416  0.3859296847549487
  0.0563174612889838  0.3569128615668902  0.8053369561032468
  0.5914950229611904  0.3168236302046168  0.3811039957037394
  0.3449549267662064  0.7374778437406206  0.6796811588706646
  0.8812158729960871  0.5202653055985920  0.9471948402873096
  0.0810225457196125  0.2355039588958050  0.6760360283003948
  0.5662731555368694  0.9486085751592057  0.9396762717728677
  0.7338553418980638  0.7120238180839138  0.0905876496354097
  0.0576315877290980  0.8892410021523531  0.7491760322749315
  0.6226032408146267  0.0377611215124674  0.7927707297854383
  0.5204791128619490  0.6077659897083976  0.8836465142668288
  0.9269846061130522  0.1700547351980006  0.1244865079708717
  0.5843125275783976  0.1427885534307549  0.0510990738165660
  0.5597029543993486  0.8082381334625026  0.2740039224433417
  0.0204134208943429  0.4024893405720391  0.6429037231948556
  0.1744169083300591  0.4420118472094643  0.3676622803700411
  0.7476780882423313  0.5449364592106392  0.8576681312231713
  0.4533845215749608  0.2466371469573829  0.9793295136695406
  0.5659441928638174  0.6294365135618989  0.3002329378492945
  0.7125700365245748  0.0874892917297032  0.6299035395657384
  0.9464765661168570  0.4928334395949534  0.7985102108818651
  0.2446045616055201  0.5798945009936105  0.6756142023343799
  0.5894755542415524  0.8745292848402073  0.0843511528642864
  0.5344477103803484  0.7999633243592399  0.4589022515321659
  0.6404042350000267  0.0351106380959365  0.3369058715303126
  0.3163559883964524  0.6442424818081633  0.5517424518261009
  0.2554935832502778  0.3606536881300286  0.1806403500493943
  0.4457936247605474  0.4770319620688994  0.7910844727887394
  0.4250004989163543  0.5373527057264482  0.2681327823811799
  0.8084162240747190  0.4689304403040850  0.3707823145881619
  0.2537600324810327  0.1631976308231557  0.7076283299376058
  0.6388190314938669  0.4014757882253761  0.0765913409221639
  0.2391267973493214  0.4787935319351462  0.8325759521907443
  0.3005040764957698  0.1590597952084920  0.0964680883429594
  0.1236275225110290  0.8789346874362280  0.1039183970288420
  0.4364197280891986  0.3451825280465570  0.2801003237294069
  0.0190605316530821  0.6405865130816863  0.7076909859467548
  0.3894907580341780  0.4378319521590655  0.6304390430110587
  0.9954101640071613  0.5491031144679397  0.5696048417031960
  0.1826081527857468  0.0305145824793627  0.1413522801203797
  0.7737735356891093  0.1158944980572585  0.4366958547507451
  0.9789701302625815  0.5328295613425382  0.3562913302566741
  0.8454075901747515  0.3545481729398858  0.2518752401683599
  0.0562668421730663  0.8136713750656384  0.9583331395248322
  0.2296860859081775  0.7662453893359213  0.0060962165447620
  0.8774072135045898  0.9481155622126494  0.2377920414641608
  0.6686014226249242  0.2606490971006110  0.6136076943235977
  0.7177671171671847  0.8676245787906538  0.2343921241780791
  0.9903810460769691  0.6253081613339262  0.8966218481098167
  0.7807386521434339  0.1382592797123436  0.0384923891542854
  0.3409791708511918  0.6291485018767844  0.8093172689703039
  0.6620489566521002  0.7982463387264787  0.9508292271534344
  0.3367887455467553  0.1303681167066486  0.4400906608608892
  0.7508956042858799  0.4748525689647778  0.1954215013811549
  0.7703351306324109  0.7661229674351233  0.7107588328293346
  0.6841025723792669  0.8415225422375414  0.5521337338973495
  0.1683113315594866  0.7910627348958954  0.2503419489672183
  0.5559634826057334  0.1328629863690054  0.5548328042755131
  0.7079801389513065  0.6834533298741974  0.2445342983314731
  0.0583098346181004  0.1878775288566814  0.3887988402890485
  0.1833599882921817  0.0532417362738258  0.3582036490228973
  0.2084203302407488  0.6730058399340209  0.1440935946755815
  0.8051508600347361  0.8561973441615223  0.8582876303791025
  0.4634424536960182  0.2585658310523939  0.4919397843513309
  0.1422887953453653  0.7453291026257389  0.6582791872854514
  0.8737219653636430  0.6388106565549805  0.6298749046643906
  0.4970826742128978  0.6326923326347753  0.6954265366222643
  0.9392152477798348  0.6852821455732823  0.4629466080495419
  0.3540065114512601  0.5013596816061252  0.4519971760000203
  0.5836372981306113  0.6392979425212744  0.4922573546442877
  0.0339810395047166  0.0814242348840395  0.5256383831186966
  0.0588281571226190  0.3484387166020255  0.2707316613948620
  0.9660799908672217  0.2003277376387231  0.8072141124422245
  0.0995809176504139  0.3294813034654140  0.4458135152404026
  0.5092316315167338  0.1037380279406008  0.3769529202959845
  0.2058954709075280  0.7591830373779018  0.8349546811564679
  0.4323446429357602  0.6441533133411852  0.4239472887708402
  0.9507778362006860  0.9317407379837803  0.8944235826844036
  0.4508743183847912  0.8733077137908865  0.1767126268721100
  0.9540254034955353  0.3379223797377549  0.1319484266497994
  0.4961038532304443  0.4558644271920969  0.9736769225640671
  0.8095855133364296  0.6953663109587964  0.9390656401992885
  0.7641284387908556  0.9137561109471832  0.4175783940687765
  0.6165818444959470  0.9890143915275118  0.5010898361487435
  0.6972870046639059  0.2143765128808823  0.7690775966102237
  0.6826790175097202  0.6414637263497056  0.6499867045979286
  0.0533126153522048  0.1325422754739662  0.2425264067332407
  0.7749904882059582  0.2938216142288965  0.4059425865130919
  0.1728363233563783  0.5791730862210756  0.4768289313813128
  0.7065340456432878  0.7466310977205524  0.4163138398772261
  0.4330791127600904  0.8970957095417162  0.3469937933222340
  0.7172649903165436  0.5506461353774910  0.0377856921052384
  0.2887396274155591  0.8828109909519597  0.1655154567406498
  0.3321800659414151  0.0285208872523555  0.5740581538760878
  0.5073337841522587  0.2935750461751852  0.1281241585999453
  0.4915357551304496  0.0166899313045121  0.0866580503363394
  0.6318266349077319  0.4282305773682396  0.8948788468255344
  0.3622363052580013  0.7690921295924085  0.8947881388477299
  0.8397842497749579  0.8684581315316748  0.0267989751849527
  0.9255983074054726  0.5071556319596056  0.1706779291799094
  0.0386050197662300  0.9765221848901646  0.2004433241114540
  0.8941079829653020  0.3979842392550026  0.5376667659347234
  0.9873115981031333  0.6353159669825246  0.2056263028349079
  0.9233344259472815  0.0847803684822566  0.3713218823420661
  0.1771912915777776  0.1833280280474554  0.5207512983757852
  0.1473923968906874  0.6175153422797166  0.8056794664715596
  0.0808063983998011  0.2444302273997110  0.1298263033483593
  0.3332180657199757  0.0303358760628143  0.2236736803327162
  0.3304509489633531  0.2147088624777567  0.2549247032102713
  0.0660176726747750  0.4668458194863447  0.9487242232123734
  0.7291637463211131  0.4660083255976133  0.6425478498725781
  0.2649567715494641  0.5350813114554356  0.2007419892114797
  0.1181451397223583  0.6309789802475549  0.9980613576800863
  0.9385261340258211  0.6854684263830890  0.0556739457641910
  0.2936379813777066  0.9440373980375654  0.4221088049437824
  0.3669482552494685  0.9297135717100176  0.8326728797922769
  0.8208135352648185  0.3399664190501568  0.6742187897227154
  0.9664460249609448  0.0073907604071834  0.6624085248003624
  0.0614849217433218  0.7859683088350877  0.4279836398319290
  0.2183821353059017  0.7388038552043028  0.4036558587142594
  0.7872201158770125  0.2786571247017378  0.1082287194363261
  0.5107786551544322  0.3206379222243143  0.8490370177346094
  0.8732910870739801  0.7679892856179009  0.2019035809190655
  0.1699539609008269  0.8673996870493568  0.5166972737304363
  0.1950190116710999  0.2309528569953159  0.8431462950947477
 
  0.00000000E+00  0.00000000E+00  0.00000000E+00
  0.00000000E+00  0.00000000E+00  0.00000000E+00
  0.00000000E+00  0.00000000E+00  0.00000000E+00
  0.00000000E+00  0.00000000E+00  0.00000000E+00
  0.00000000E+00  0.00000000E+00  0.00000000E+00
  0.00000000E+00  0.00000000E+00  0.00000000E+00
  0.00000000E+00  0.00000000E+00  0.00000000E+00
  0.00000000E+00  0.00000000E+00  0.00000000E+00
  0.00000000E+00  0.00000000E+00  0.00000000E+00
  0.00000000E+00  0.00000000E+00  0.00000000E+00
  0.00000000E+00  0.00000000E+00  0.00000000E+00
  0.00000000E+00  0.00000000E+00  0.00000000E+00
  0.00000000E+00  0.00000000E+00  0.00000000E+00
  0.00000000E+00  0.00000000E+00  0.00000000E+00
  0.00000000E+00  0.00000000E+00  0.00000000E+00
  0.00000000E+00  0.00000000E+00  0.00000000E+00
  0.00000000E+00  0.00000000E+00  0.00000000E+00
  0.00000000E+00  0.00000000E+00  0.00000000E+00
  0.00000000E+00  0.00000000E+00  0.00000000E+00
  0.00000000E+00  0.00000000E+00  0.00000000E+00
  0.00000000E+00  0.00000000E+00  0.00000000E+00
  0.00000000E+00  0.00000000E+00  0.00000000E+00
  0.00000000E+00  0.00000000E+00  0.00000000E+00
  0.00000000E+00  0.00000000E+00  0.00000000E+00
  0.00000000E+00  0.00000000E+00  0.00000000E+00
  0.00000000E+00  0.00000000E+00  0.00000000E+00
  0.00000000E+00  0.00000000E+00  0.00000000E+00
  0.00000000E+00  0.00000000E+00  0.00000000E+00
  0.00000000E+00  0.00000000E+00  0.00000000E+00
  0.00000000E+00  0.00000000E+00  0.00000000E+00
  0.00000000E+00  0.00000000E+00  0.00000000E+00
  0.00000000E+00  0.00000000E+00  0.00000000E+00
  0.00000000E+00  0.00000000E+00  0.00000000E+00
  0.00000000E+00  0.00000000E+00  0.00000000E+00
  0.00000000E+00  0.00000000E+00  0.00000000E+00
  0.00000000E+00  0.00000000E+00  0.00000000E+00
  0.00000000E+00  0.00000000E+00  0.00000000E+00
  0.00000000E+00  0.00000000E+00  0.00000000E+00
  0.00000000E+00  0.00000000E+00  0.00000000E+00
  0.00000000E+00  0.00000000E+00  0.00000000E+00
  0.00000000E+00  0.00000000E+00  0.00000000E+00
  0.00000000E+00  0.00000000E+00  0.00000000E+00
  0.00000000E+00  0.00000000E+00  0.00000000E+00
  0.00000000E+00  0.00000000E+00  0.00000000E+00
  0.00000000E+00  0.00000000E+00  0.00000000E+00
  0.00000000E+00  0.00000000E+00  0.00000000E+00
  0.00000000E+00  0.00000000E+00  0.00000000E+00
  0.00000000E+00  0.00000000E+00  0.00000000E+00
  0.00000000E+00  0.00000000E+00  0.00000000E+00
  0.00000000E+00  0.00000000E+00  0.00000000E+00
  0.00000000E+00  0.00000000E+00  0.00000000E+00
  0.00000000E+00  0.00000000E+00  0.00000000E+00
  0.00000000E+00  0.00000000E+00  0.00000000E+00
  0.00000000E+00  0.00000000E+00  0.00000000E+00
  0.00000000E+00  0.00000000E+00  0.00000000E+00
  0.00000000E+00  0.00000000E+00  0.00000000E+00
  0.00000000E+00  0.00000000E+00  0.00000000E+00
  0.00000000E+00  0.00000000E+00  0.00000000E+00
  0.00000000E+00  0.00000000E+00  0.00000000E+00
  0.00000000E+00  0.00000000E+00  0.00000000E+00
  0.00000000E+00  0.00000000E+00  0.00000000E+00
  0.00000000E+00  0.00000000E+00  0.00000000E+00
  0.00000000E+00  0.00000000E+00  0.00000000E+00
  0.00000000E+00  0.00000000E+00  0.00000000E+00
  0.00000000E+00  0.00000000E+00  0.00000000E+00
  0.00000000E+00  0.00000000E+00  0.00000000E+00
  0.00000000E+00  0.00000000E+00  0.00000000E+00
  0.00000000E+00  0.00000000E+00  0.00000000E+00
  0.00000000E+00  0.00000000E+00  0.00000000E+00
  0.00000000E+00  0.00000000E+00  0.00000000E+00
  0.00000000E+00  0.00000000E+00  0.00000000E+00
  0.00000000E+00  0.00000000E+00  0.00000000E+00
  0.00000000E+00  0.00000000E+00  0.00000000E+00
  0.00000000E+00  0.00000000E+00  0.00000000E+00
  0.00000000E+00  0.00000000E+00  0.00000000E+00
  0.00000000E+00  0.00000000E+00  0.00000000E+00
  0.00000000E+00  0.00000000E+00  0.00000000E+00
  0.00000000E+00  0.00000000E+00  0.00000000E+00
  0.00000000E+00  0.00000000E+00  0.00000000E+00
  0.00000000E+00  0.00000000E+00  0.00000000E+00
  0.00000000E+00  0.00000000E+00  0.00000000E+00
  0.00000000E+00  0.00000000E+00  0.00000000E+00
  0.00000000E+00  0.00000000E+00  0.00000000E+00
  0.00000000E+00  0.00000000E+00  0.00000000E+00
  0.00000000E+00  0.00000000E+00  0.00000000E+00
  0.00000000E+00  0.00000000E+00  0.00000000E+00
  0.00000000E+00  0.00000000E+00  0.00000000E+00
  0.00000000E+00  0.00000000E+00  0.00000000E+00
  0.00000000E+00  0.00000000E+00  0.00000000E+00
  0.00000000E+00  0.00000000E+00  0.00000000E+00
  0.00000000E+00  0.00000000E+00  0.00000000E+00
  0.00000000E+00  0.00000000E+00  0.00000000E+00
  0.00000000E+00  0.00000000E+00  0.00000000E+00
  0.00000000E+00  0.00000000E+00  0.00000000E+00
  0.00000000E+00  0.00000000E+00  0.00000000E+00
  0.00000000E+00  0.00000000E+00  0.00000000E+00
  0.00000000E+00  0.00000000E+00  0.00000000E+00
  0.00000000E+00  0.00000000E+00  0.00000000E+00
  0.00000000E+00  0.00000000E+00  0.00000000E+00
  0.00000000E+00  0.00000000E+00  0.00000000E+00
  0.00000000E+00  0.00000000E+00  0.00000000E+00
  0.00000000E+00  0.00000000E+00  0.00000000E+00
  0.00000000E+00  0.00000000E+00  0.00000000E+00
  0.00000000E+00  0.00000000E+00  0.00000000E+00
  0.00000000E+00  0.00000000E+00  0.00000000E+00
  0.00000000E+00  0.00000000E+00  0.00000000E+00
  0.00000000E+00  0.00000000E+00  0.00000000E+00
  0.00000000E+00  0.00000000E+00  0.00000000E+00
  0.00000000E+00  0.00000000E+00  0.00000000E+00
  0.00000000E+00  0.00000000E+00  0.00000000E+00
  0.00000000E+00  0.00000000E+00  0.00000000E+00
  0.00000000E+00  0.00000000E+00  0.00000000E+00
  0.00000000E+00  0.00000000E+00  0.00000000E+00
  0.00000000E+00  0.00000000E+00  0.00000000E+00
  0.00000000E+00  0.00000000E+00  0.00000000E+00
  0.00000000E+00  0.00000000E+00  0.00000000E+00
  0.00000000E+00  0.00000000E+00  0.00000000E+00
  0.00000000E+00  0.00000000E+00  0.00000000E+00
  0.00000000E+00  0.00000000E+00  0.00000000E+00
  0.00000000E+00  0.00000000E+00  0.00000000E+00
  0.00000000E+00  0.00000000E+00  0.00000000E+00
  0.00000000E+00  0.00000000E+00  0.00000000E+00
  0.00000000E+00  0.00000000E+00  0.00000000E+00
  0.00000000E+00  0.00000000E+00  0.00000000E+00
  0.00000000E+00  0.00000000E+00  0.00000000E+00
  0.00000000E+00  0.00000000E+00  0.00000000E+00
  0.00000000E+00  0.00000000E+00  0.00000000E+00
  0.00000000E+00  0.00000000E+00  0.00000000E+00
  0.00000000E+00  0.00000000E+00  0.00000000E+00
  0.00000000E+00  0.00000000E+00  0.00000000E+00
  0.00000000E+00  0.00000000E+00  0.00000000E+00
  0.00000000E+00  0.00000000E+00  0.00000000E+00
  0.00000000E+00  0.00000000E+00  0.00000000E+00
  0.00000000E+00  0.00000000E+00  0.00000000E+00
  0.00000000E+00  0.00000000E+00  0.00000000E+00
  0.00000000E+00  0.00000000E+00  0.00000000E+00
  0.00000000E+00  0.00000000E+00  0.00000000E+00
  0.00000000E+00  0.00000000E+00  0.00000000E+00
  0.00000000E+00  0.00000000E+00  0.00000000E+00
  0.00000000E+00  0.00000000E+00  0.00000000E+00
  0.00000000E+00  0.00000000E+00  0.00000000E+00
  0.00000000E+00  0.00000000E+00  0.00000000E+00
  0.00000000E+00  0.00000000E+00  0.00000000E+00
  0.00000000E+00  0.00000000E+00  0.00000000E+00
  0.00000000E+00  0.00000000E+00  0.00000000E+00
  0.00000000E+00  0.00000000E+00  0.00000000E+00
  0.00000000E+00  0.00000000E+00  0.00000000E+00
  0.00000000E+00  0.00000000E+00  0.00000000E+00
  0.00000000E+00  0.00000000E+00  0.00000000E+00
  0.00000000E+00  0.00000000E+00  0.00000000E+00
  0.00000000E+00  0.00000000E+00  0.00000000E+00
  0.00000000E+00  0.00000000E+00  0.00000000E+00
  0.00000000E+00  0.00000000E+00  0.00000000E+00
  0.00000000E+00  0.00000000E+00  0.00000000E+00
  0.00000000E+00  0.00000000E+00  0.00000000E+00
  0.00000000E+00  0.00000000E+00  0.00000000E+00
  0.00000000E+00  0.00000000E+00  0.00000000E+00
  0.00000000E+00  0.00000000E+00  0.00000000E+00
  0.00000000E+00  0.00000000E+00  0.00000000E+00
  0.00000000E+00  0.00000000E+00  0.00000000E+00
  0.00000000E+00  0.00000000E+00  0.00000000E+00
  0.00000000E+00  0.00000000E+00  0.00000000E+00
  0.00000000E+00  0.00000000E+00  0.00000000E+00
  0.00000000E+00  0.00000000E+00  0.00000000E+00
  0.00000000E+00  0.00000000E+00  0.00000000E+00
  0.00000000E+00  0.00000000E+00  0.00000000E+00
  0.00000000E+00  0.00000000E+00  0.00000000E+00
  0.00000000E+00  0.00000000E+00  0.00000000E+00
  0.00000000E+00  0.00000000E+00  0.00000000E+00
  0.00000000E+00  0.00000000E+00  0.00000000E+00
  0.00000000E+00  0.00000000E+00  0.00000000E+00
  0.00000000E+00  0.00000000E+00  0.00000000E+00
  0.00000000E+00  0.00000000E+00  0.00000000E+00
  0.00000000E+00  0.00000000E+00  0.00000000E+00
  0.00000000E+00  0.00000000E+00  0.00000000E+00
  0.00000000E+00  0.00000000E+00  0.00000000E+00
  0.00000000E+00  0.00000000E+00  0.00000000E+00
  0.00000000E+00  0.00000000E+00  0.00000000E+00
  0.00000000E+00  0.00000000E+00  0.00000000E+00
  0.00000000E+00  0.00000000E+00  0.00000000E+00
  0.00000000E+00  0.00000000E+00  0.00000000E+00
  0.00000000E+00  0.00000000E+00  0.00000000E+00
  0.00000000E+00  0.00000000E+00  0.00000000E+00
  0.00000000E+00  0.00000000E+00  0.00000000E+00
  0.00000000E+00  0.00000000E+00  0.00000000E+00
  0.00000000E+00  0.00000000E+00  0.00000000E+00
  0.00000000E+00  0.00000000E+00  0.00000000E+00
  0.00000000E+00  0.00000000E+00  0.00000000E+00
  0.00000000E+00  0.00000000E+00  0.00000000E+00
  0.00000000E+00  0.00000000E+00  0.00000000E+00
  0.00000000E+00  0.00000000E+00  0.00000000E+00
  0.00000000E+00  0.00000000E+00  0.00000000E+00
  0.00000000E+00  0.00000000E+00  0.00000000E+00
  0.00000000E+00  0.00000000E+00  0.00000000E+00
  0.00000000E+00  0.00000000E+00  0.00000000E+00
  0.00000000E+00  0.00000000E+00  0.00000000E+00
  0.00000000E+00  0.00000000E+00  0.00000000E+00
  0.00000000E+00  0.00000000E+00  0.00000000E+00
  0.00000000E+00  0.00000000E+00  0.00000000E+00
  0.00000000E+00  0.00000000E+00  0.00000000E+00
  0.00000000E+00  0.00000000E+00  0.00000000E+00
  0.00000000E+00  0.00000000E+00  0.00000000E+00
  0.00000000E+00  0.00000000E+00  0.00000000E+00
  0.00000000E+00  0.00000000E+00  0.00000000E+00
  0.00000000E+00  0.00000000E+00  0.00000000E+00
  0.00000000E+00  0.00000000E+00  0.00000000E+00
  0.00000000E+00  0.00000000E+00  0.00000000E+00
  0.00000000E+00  0.00000000E+00  0.00000000E+00
  0.00000000E+00  0.00000000E+00  0.00000000E+00
  0.00000000E+00  0.00000000E+00  0.00000000E+00
  0.00000000E+00  0.00000000E+00  0.00000000E+00
  0.00000000E+00  0.00000000E+00  0.00000000E+00
  0.00000000E+00  0.00000000E+00  0.00000000E+00
  0.00000000E+00  0.00000000E+00  0.00000000E+00
  0.00000000E+00  0.00000000E+00  0.00000000E+00
  0.00000000E+00  0.00000000E+00  0.00000000E+00
  0.00000000E+00  0.00000000E+00  0.00000000E+00
  0.00000000E+00  0.00000000E+00  0.00000000E+00
  0.00000000E+00  0.00000000E+00  0.00000000E+00
  0.00000000E+00  0.00000000E+00  0.00000000E+00
  0.00000000E+00  0.00000000E+00  0.00000000E+00
  0.00000000E+00  0.00000000E+00  0.00000000E+00
  0.00000000E+00  0.00000000E+00  0.00000000E+00
  0.00000000E+00  0.00000000E+00  0.00000000E+00
  0.00000000E+00  0.00000000E+00  0.00000000E+00
  0.00000000E+00  0.00000000E+00  0.00000000E+00
  0.00000000E+00  0.00000000E+00  0.00000000E+00
  0.00000000E+00  0.00000000E+00  0.00000000E+00
  0.00000000E+00  0.00000000E+00  0.00000000E+00
  0.00000000E+00  0.00000000E+00  0.00000000E+00
  0.00000000E+00  0.00000000E+00  0.00000000E+00
  0.00000000E+00  0.00000000E+00  0.00000000E+00
  0.00000000E+00  0.00000000E+00  0.00000000E+00
  0.00000000E+00  0.00000000E+00  0.00000000E+00
  0.00000000E+00  0.00000000E+00  0.00000000E+00
  0.00000000E+00  0.00000000E+00  0.00000000E+00
  0.00000000E+00  0.00000000E+00  0.00000000E+00
  0.00000000E+00  0.00000000E+00  0.00000000E+00
  0.00000000E+00  0.00000000E+00  0.00000000E+00
  0.00000000E+00  0.00000000E+00  0.00000000E+00
  0.00000000E+00  0.00000000E+00  0.00000000E+00
  0.00000000E+00  0.00000000E+00  0.00000000E+00
  0.00000000E+00  0.00000000E+00  0.00000000E+00
  0.00000000E+00  0.00000000E+00  0.00000000E+00
  0.00000000E+00  0.00000000E+00  0.00000000E+00
  0.00000000E+00  0.00000000E+00  0.00000000E+00
  0.00000000E+00  0.00000000E+00  0.00000000E+00
  0.00000000E+00  0.00000000E+00  0.00000000E+00
  0.00000000E+00  0.00000000E+00  0.00000000E+00
  0.00000000E+00  0.00000000E+00  0.00000000E+00
  0.00000000E+00  0.00000000E+00  0.00000000E+00
  0.00000000E+00  0.00000000E+00  0.00000000E+00
  0.00000000E+00  0.00000000E+00  0.00000000E+00
  0.00000000E+00  0.00000000E+00  0.00000000E+00
  0.00000000E+00  0.00000000E+00  0.00000000E+00
  0.00000000E+00  0.00000000E+00  0.00000000E+00
  0.00000000E+00  0.00000000E+00  0.00000000E+00
  0.00000000E+00  0.00000000E+00  0.00000000E+00
  0.00000000E+00  0.00000000E+00  0.00000000E+00
  0.00000000E+00  0.00000000E+00  0.00000000E+00
  0.00000000E+00  0.00000000E+00  0.00000000E+00
  0.00000000E+00  0.00000000E+00  0.00000000E+00
  0.00000000E+00  0.00000000E+00  0.00000000E+00
  0.00000000E+00  0.00000000E+00  0.00000000E+00
  0.00000000E+00  0.00000000E+00  0.00000000E+00
  0.00000000E+00  0.00000000E+00  0.00000000E+00
  0.00000000E+00  0.00000000E+00  0.00000000E+00
  0.00000000E+00  0.00000000E+00  0.00000000E+00
  0.00000000E+00  0.00000000E+00  0.00000000E+00