Te90O180 random snaphot
1.0
16.2389244662  0.000000       0.000000
0.00000000000  16.2389244662  0.000000
0.000000       0.000000       16.2389244662
Te O
90 180
Cartesian
17.524740 -0.816737 10.558465
11.221873 10.414616 5.776189
-0.497434 12.093331 5.775763
1.515211 5.584316 0.900735
2.953001 14.889889 3.247144
11.233852 15.697398 10.139165
8.225595 16.677375 13.294357
8.003622 9.052975 5.875007
2.094570 7.525675 7.873995
6.062544 15.451966 1.895042
14.161319 3.522106 0.379072
14.462576 12.989654 -1.165874
6.873448 3.675889 14.091973
14.363236 9.480220 13.748264
10.435183 13.903048 7.125793
15.987429 4.063033 3.340681
13.721478 -0.218589 0.371693
9.436321 5.614774 8.031583
4.737153 9.841381 7.254561
13.711779 14.110651 7.951008
16.950845 1.211519 5.560678
15.970010 6.532125 14.356341
0.948592 3.303260 8.300816
11.441762 15.244579 13.660836
2.717495 13.671286 6.537695
7.178262 13.023611 4.348684
11.627979 6.001727 11.661555
14.985987 7.685659 10.251226
5.148289 14.325451 14.941481
10.113736 1.506524 7.245855
10.556052 8.619163 9.364445
3.692516 5.624832 13.950687
5.061498 5.789356 1.082491
14.821187 0.783120 9.051997
-1.345993 1.598815 13.735645
8.967076 5.237021 3.972489
9.481760 10.337326 12.595807
2.479956 2.147748 12.636785
4.160083 1.989810 3.286786
5.513356 15.943512 11.026102
3.948068 0.936605 7.494951
10.093110 2.665388 10.913990
3.482045 11.069590 4.253224
-0.175687 11.081726 9.588066
5.819114 10.044530 11.178411
12.197102 7.237394 -1.248895
13.598970 4.684257 8.907716
7.730942 13.310810 11.760136
8.645278 16.987082 4.440467
18.179017 12.503838 0.726583
11.424201 10.877080 -0.227185
5.493988 7.098235 3.960865
7.708731 10.066776 1.804318
11.321135 2.950451 14.338627
12.533594 11.215330 9.690717
6.575348 14.756668 7.487889
-0.704188 14.232436 3.019815
14.099689 13.537454 11.878375
7.822700 2.883758 1.533576
3.703333 4.361106 10.476505
2.485321 5.288974 5.554883
13.687106 2.993303 5.983212
14.199859 9.097790 6.794551
17.726066 11.692706 12.520510
9.792276 16.349807 17.270896
13.875541 6.737761 2.406055
6.192475 3.750542 5.834055
2.814063 8.322360 12.114258
14.215032 10.721003 2.500936
4.149551 1.805388 15.654683
0.202073 9.317779 0.076354
12.308861 -0.277900 3.812433
10.519422 8.100398 2.166999
4.032634 12.823261 9.790925
3.577516 9.117751 1.482177
8.108327 11.518444 8.611626
11.603791 3.102337 2.453579
0.860387 0.803568 1.635282
10.674416 12.586796 2.860820
12.044092 6.139999 5.335735
7.581158 6.263314 11.587918
8.969615 13.468407 15.860684
1.169396 15.339129 14.504059
4.477427 11.149788 14.614178
7.119835 2.874423 9.472645
6.960477 8.608876 14.662711
0.623256 8.688575 4.017111
-0.322766 4.647371 11.599741
5.843388 6.408956 8.409416
9.074206 5.715437 15.590553
4.984926 5.014918 6.603656
12.084534 9.437278 8.360378
14.898507 12.342355 13.138176
8.118404 3.967860 10.774793
15.217208 12.880139 10.159384
5.504321 5.599990 14.643221
13.367987 10.345823 5.616960
8.932814 14.758208 12.255669
11.311429 4.606328 3.848355
1.855955 10.021064 21.017303
18.734856 0.448774 11.263415
5.957043 1.998139 14.990824
3.457566 0.959915 13.807255
6.470456 14.180852 16.438236
14.958951 3.696499 9.977041
0.085038 13.706520 4.719355
8.578864 12.863695 10.138209
8.457201 18.661018 13.800253
4.597001 16.320154 16.166110
9.154827 11.195792 1.081031
1.929398 8.394130 2.096854
7.349433 1.025107 11.626131
4.233170 5.632294 12.038451
12.807434 6.262087 13.318843
0.470341 4.896902 -0.494157
1.736482 16.384683 0.017909
8.420715 2.462254 3.551144
3.997745 14.346093 10.910372
12.338897 15.570657 11.961153
6.733189 11.493943 2.579257
15.193985 15.515745 7.882925
9.196873 6.932922 10.893430
3.507728 6.763796 8.934463
10.437579 7.316516 7.759326
15.141582 17.977852 -0.520142
12.604488 1.904176 3.577453
16.704723 0.877379 13.680430
9.222120 12.174459 12.983143
-0.699608 -0.448610 1.169187
12.296598 16.460292 14.904706
9.400835 7.122801 3.694430
10.184715 16.560854 3.031542
11.079092 4.535369 15.294911
19.434088 4.979725 0.259811
7.813883 6.803092 7.982333
6.816949 14.603895 10.491886
6.535184 7.100789 2.271257
5.922057 13.078456 8.100938
13.302958 3.296595 14.339159
5.590757 4.327486 9.679812
14.795969 3.816383 7.466417
4.319902 7.370217 0.454417
6.638482 9.984396 0.224766
12.367424 -0.383107 1.844322
13.123229 -0.712684 9.568830
-1.869866 13.303662 6.267083
0.914535 5.795881 13.077806
9.605243 5.144875 6.188719
5.601697 11.975847 11.037291
14.309998 8.448549 -0.857499
1.315719 3.824331 10.978098
9.195667 15.404383 15.259332
-4.321903 11.562501 1.471046
0.935875 -1.798607 12.165813
10.110407 0.613200 12.873744
8.452021 9.869466 14.349469
15.053233 2.761506 2.021527
9.488607 18.557657 0.829794
9.088974 13.124918 4.449529
0.331492 6.535994 10.440065
2.832343 7.177797 5.970440
12.141488 8.849182 13.927608
7.362477 4.005122 15.903258
9.190325 10.221372 4.875460
11.571371 1.420732 10.228956
-0.869163 8.003085 12.966947
3.972115 9.416863 10.971248
9.572449 14.201415 1.369772
8.678856 12.990544 7.452079
10.399476 0.570159 5.470989
5.137281 10.461805 8.959704
4.148941 5.856628 2.933405
7.239209 7.746486 12.846361
6.901551 8.726030 4.354188
13.127810 7.614926 6.021106
4.120790 2.650154 11.491123
10.373734 6.519535 1.243761
3.883162 7.775092 13.520138
4.879863 2.582960 1.566538
2.007578 14.272954 1.687523
7.086987 5.605393 4.548528
16.548447 10.402436 -4.746784
6.324911 7.109920 10.237652
-0.074534 8.916844 9.249770
2.965360 0.495524 2.295409
12.565250 1.882002 7.091471
15.897422 8.652579 5.785788
13.728510 5.757481 4.090183
0.913713 13.213148 -0.676625
3.729855 12.443001 0.098996
-1.990775 15.396377 3.861487
10.857368 4.232661 9.964329
11.655766 14.089290 3.806276
16.082723 10.154332 -1.678750
12.678356 2.245182 0.625075
5.537135 10.216695 13.142442
10.750963 12.962662 15.440444
5.469087 2.117038 7.146599
12.193737 7.711095 3.173435
12.509414 12.441013 11.541959
11.109090 13.665421 8.966058
2.733195 12.846008 4.065284
9.028249 2.157552 9.009888
11.496836 11.098547 3.970974
0.946889 3.050929 6.313675
2.977569 17.103513 5.816842
3.384522 10.928891 2.339925
13.074784 13.903724 13.937668
7.525807 4.198831 7.988573
2.310617 12.103343 10.689746
14.188305 10.373598 10.228491
8.072088 10.274243 11.292979
-0.987079 11.128245 7.517755
5.748685 8.141542 7.339948
9.477642 10.381511 7.993730
16.790740 1.322242 8.535802
0.955306 5.658270 4.396391
15.688100 3.253107 13.108289
1.617087 5.350422 7.239532
8.269374 1.684594 6.121310
3.343521 12.328316 13.558766
7.020812 10.460357 6.884448
-0.799315 -1.108457 14.524477
7.321714 14.181578 2.869623
-0.746578 5.487496 18.381625
8.056193 7.402748 15.811466
13.146798 11.292001 15.249416
12.408624 -1.400508 6.781024
10.012626 16.060530 8.137160
11.323191 3.481244 12.488993
11.085973 10.416681 10.555085
17.104664 2.152344 3.938368
12.585012 4.771347 6.592071
2.806676 9.405148 7.743189
11.473353 12.124486 6.760489
7.032739 -1.671055 5.634806
11.647612 8.941901 0.613599
4.688821 14.335901 2.687793
5.394247 16.702073 9.322087
8.238555 4.767343 18.319523
7.982012 16.509951 17.646158
10.260185 6.954004 14.531870
5.882328 12.489229 14.530397
13.637193 14.102826 16.674111
15.030721 8.235662 2.771626
0.626904 15.857670 3.254984
14.519352 6.462836 8.731130
-0.206046 10.316848 3.339150
14.993958 1.376742 6.029868
2.877396 2.977050 8.456441
2.393494 10.027785 13.083368
1.312209 3.969284 18.347164
5.411103 0.492622 3.632220
5.366168 3.486641 4.139703
1.072056 7.581074 15.406261
11.840835 7.567474 10.434286
4.302613 8.689145 3.259834
1.918550 10.246420 16.207443
15.240655 11.131270 0.904085
4.768365 15.330152 6.854593
5.958845 -1.141376 13.521712
13.329129 5.520689 10.948588
15.694044 0.120018 10.756802
0.998449 12.763280 6.949994
3.546291 11.997380 6.554937
12.783608 4.525092 1.757518
8.294496 5.206815 13.787448
14.181308 12.471320 3.278697
18.998794 14.085638 8.390608
3.166899 3.750426 13.691789
