Te4 O8
1.0
4.812200 0.000000 0.000000
0.000000 4.812200 0.000000
0.000000 0.000000 7.615700
Te O
4 8
direct
0.027900 0.027900 0.000000 Te
0.472100 0.527900 0.250000 Te
0.972100 0.972100 0.500000 Te
0.527900 0.472100 0.750000 Te
0.145000 0.262000 0.187000 O
0.238000 0.645000 0.437000 O
0.855000 0.738000 0.687000 O
0.762000 0.355000 0.937000 O
0.645000 0.238000 0.563000 O
0.262000 0.145000 0.813000 O
0.355000 0.762000 0.063000 O
0.738000 0.855000 0.313000 O
