system Si                               
   5.43000000000000     
     0.5000000000000000    0.5000000000000000    0.0000000000000000
     0.0000000000000000    0.5000000000000000    0.5000000000000000
     0.5000000000000000    0.0000000000000000    0.5000000000000000
   Si
     2
Direct
  1.0019907771502228  1.0016859446468143  1.0004902413329642
  0.2480092228497760  0.2483140553531848  0.2495097586670360
 
 -0.56582787E-03 -0.40042112E-02  0.10439178E-03
  0.56582787E-03  0.40042112E-02 -0.10439178E-03
 
           1
   1.00000000000000     
 -0.24395415E+00 -0.37200798E-01 -0.40018403E-01 -0.20534455E+00
  0.11299243E-02  0.10719499E-02  0.11426861E-02
  0.24887008E+00  0.24892805E+00  0.24885731E+00
  0.00000000E+00  0.00000000E+00  0.00000000E+00
  0.00000000E+00  0.00000000E+00  0.00000000E+00
  0.00000000E+00  0.00000000E+00  0.00000000E+00
  0.00000000E+00  0.00000000E+00  0.00000000E+00
