EA57    3.919  6.623  6.613 88.42 90.02 89.99 Sym.group:   65
1.0000
    3.915190     0.159674     0.086965
   -0.264691     6.615480    -0.156404
   -0.163073     0.332140     6.602429
  Si
   8 
Direct
    0.002008     0.184529     0.183153     2.901388
    0.998286     0.824319     0.175629     2.930341
    0.007147     0.186016     0.821757     2.916022
    0.002312     0.825763     0.814257     2.900902
    0.502040     0.321408     0.320658     2.896012
    0.498491     0.682178     0.315708     2.935927
    0.506960     0.328233     0.681620     2.932199
    0.502280     0.688932     0.676781     2.894359
