system Si                               
   5.43000000000000     
     0.5000000000000000    0.5000000000000000    0.0000000000000000
     0.0000000000000000    0.5000000000000000    0.5000000000000000
     0.5000000000000000    0.0000000000000000    0.5000000000000000
   Si
     2
Direct
  0.0085350915609761  0.0024423747613640 -0.0156203987694720
  0.2414649127390241  0.2475576251386359  0.2656203948694719
 
  0.79704374E-03  0.65350135E-03  0.69812971E-03
 -0.79704374E-03 -0.65350135E-03 -0.69812971E-03
 
           1
   1.00000000000000     
 -0.63147405E+00  0.50959591E-01  0.61861469E-01 -0.68788458E+00
  0.86736579E-02  0.25445087E-02  0.98453461E+00
  0.24132635E+00  0.24745549E+00  0.26546539E+00
  0.00000000E+00  0.00000000E+00  0.00000000E+00
  0.00000000E+00  0.00000000E+00  0.00000000E+00
  0.00000000E+00  0.00000000E+00  0.00000000E+00
  0.00000000E+00  0.00000000E+00  0.00000000E+00
