system Si                               
   5.43000000000000     
     0.5000000000000000    0.5000000000000000    0.0000000000000000
     0.0000000000000000    0.5000000000000000    0.5000000000000000
     0.5000000000000000    0.0000000000000000    0.5000000000000000
   Si
     2
Direct
 -0.0085101387124573 -0.0080453658780527 -0.0005820481397676
  0.2585101387124574  0.2580453658780527  0.2505820481397681
 
 -0.28580442E-03 -0.40844705E-03 -0.43932220E-03
  0.28580442E-03  0.40844705E-03  0.43932220E-03
 
           1
   1.00000000000000     
 -0.61529908E+00  0.46872118E-01  0.58800256E-01 -0.66813526E+00
  0.99144291E+00  0.99185114E+00  0.99935963E+00
  0.25855709E+00  0.25814886E+00  0.25064037E+00
  0.00000000E+00  0.00000000E+00  0.00000000E+00
  0.00000000E+00  0.00000000E+00  0.00000000E+00
  0.00000000E+00  0.00000000E+00  0.00000000E+00
  0.00000000E+00  0.00000000E+00  0.00000000E+00
