EA6     5.023  5.529  5.256 100.63 71.03 112.85 Sym.group:    2
1.0000
    4.988951     0.315856    -0.494249
   -2.471703     4.946163     0.030476
    2.195047    -0.016508     4.775928
  Si
   8 
Direct
    0.257751     0.001702     0.004235
    0.760956     0.002250     0.997650
    0.496901     0.002656     0.498275
    0.993767     0.998990     0.500557
    0.007612     0.503292     0.002219
    0.504056     0.498225     0.005448
    0.740844     0.498539     0.504332
    0.246068     0.506566     0.500743
