Si9 C8 N8 generated with ceramicNetworkBuilder, seed = 9896.
1.0
8.000000 0.000000 0.000000
0.000000 8.000000 0.000000
0.000000 0.000000 8.000000
Si C N
9 8 8
direct
0.242726 0.734356 0.400598 Si
0.919711 0.365620 0.242333 Si
0.868110 0.633603 0.520538 Si
1.229345 0.311734 0.453941 Si
0.294049 0.595459 0.010035 Si
0.505719 0.203727 0.043258 Si
0.710606 0.620446 0.055536 Si
0.953944 0.399925 -0.133440 Si
0.207263 0.086695 -0.114322 Si
0.500000 0.500000 0.500000 C
0.632264 0.365322 0.462261 C
0.396239 0.575831 0.356684 C
0.471497 0.558847 0.681055 C
0.570529 0.253287 0.318410 C
0.797401 0.450078 0.411248 C
0.661126 0.257922 0.619387 C
0.423817 0.516035 0.175797 C
0.884691 0.150197 0.227562 N
1.131932 0.402553 0.280406 N
0.861420 0.461997 0.054810 N
0.556118 0.394094 0.138504 N
0.625763 0.327261 0.785837 N
0.724040 0.086066 0.602921 N
1.244860 0.459507 0.614483 N
0.364206 0.238979 -0.119785 N
